#PSV-2.1
'LDAPZ81 '  14.00000000 1
# pseudo potential for tapp generated by
# psv-2.1.3 2003.10.31                              
# title (comment) of allel input file:
# Silicon -- PBE --non-rela, single ref, Henry Quarshie ELorm 2018        
# title (comment) of psv input file:
# Silicon --PBE --non-rela, Henry Quarshie ELorm 2018                     
# stiffness=   0.9818424
# 
     4.00000000000000
    2
    1    1
      1671    0.220843721650226E+01
       2.10492184       2.18369277      -1.10492184       1.03991038
 2000
    0.500000000000000E-06   -0.702963460098083E+01    0.372380967877527E+00
    0.504602171525542E-06   -0.702963460098083E+01    0.372380967877525E+00
    0.509246703016585E-06   -0.702963460098083E+01    0.372380967877524E+00
    0.513933984368783E-06   -0.702963460098083E+01    0.372380967877522E+00
    0.518664409066524E-06   -0.702963460098084E+01    0.372380967877520E+00
    0.523438374215960E-06   -0.702963460098084E+01    0.372380967877519E+00
    0.528256280578346E-06   -0.702963460098084E+01    0.372380967877517E+00
    0.533118532603678E-06   -0.702963460098084E+01    0.372380967877516E+00
    0.538025538464653E-06   -0.702963460098084E+01    0.372380967877514E+00
    0.542977710090926E-06   -0.702963460098084E+01    0.372380967877512E+00
    0.547975463203695E-06   -0.702963460098084E+01    0.372380967877510E+00
    0.553019217350598E-06   -0.702963460098084E+01    0.372380967877509E+00
    0.558109395940935E-06   -0.702963460098084E+01    0.372380967877507E+00
    0.563246426281209E-06   -0.702963460098085E+01    0.372380967877505E+00
    0.568430739610998E-06   -0.702963460098085E+01    0.372380967877503E+00
    0.573662771139160E-06   -0.702963460098085E+01    0.372380967877501E+00
    0.578942960080360E-06   -0.702963460098085E+01    0.372380967877499E+00
    0.584271749691949E-06   -0.702963460098085E+01    0.372380967877497E+00
    0.589649587311171E-06   -0.702963460098085E+01    0.372380967877495E+00
    0.595076924392714E-06   -0.702963460098085E+01    0.372380967877493E+00
    0.600554216546608E-06   -0.702963460098085E+01    0.372380967877491E+00
    0.606081923576478E-06   -0.702963460098085E+01    0.372380967877489E+00
    0.611660509518137E-06   -0.702963460098085E+01    0.372380967877487E+00
    0.617290442678543E-06   -0.702963460098085E+01    0.372380967877484E+00
    0.622972195675111E-06   -0.702963460098086E+01    0.372380967877482E+00
    0.628706245475392E-06   -0.702963460098086E+01    0.372380967877480E+00
    0.634493073437107E-06   -0.702963460098086E+01    0.372380967877477E+00
    0.640333165348559E-06   -0.702963460098086E+01    0.372380967877475E+00
    0.646227011469413E-06   -0.702963460098086E+01    0.372380967877472E+00
    0.652175106571855E-06   -0.702963460098086E+01    0.372380967877470E+00
    0.658177949982119E-06   -0.702963460098086E+01    0.372380967877468E+00
    0.664236045622414E-06   -0.702963460098086E+01    0.372380967877465E+00
    0.670349902053218E-06   -0.702963460098086E+01    0.372380967877462E+00
    0.676520032515977E-06   -0.702963460098087E+01    0.372380967877460E+00
    0.682746954976184E-06   -0.702963460098087E+01    0.372380967877457E+00
    0.689031192166868E-06   -0.702963460098087E+01    0.372380967877454E+00
    0.695373271632469E-06   -0.702963460098087E+01    0.372380967877451E+00
    0.701773725773129E-06   -0.702963460098087E+01    0.372380967877448E+00
    0.708233091889383E-06   -0.702963460098087E+01    0.372380967877445E+00
    0.714751912227262E-06   -0.702963460098088E+01    0.372380967877443E+00
    0.721330734023820E-06   -0.702963460098088E+01    0.372380967877439E+00
    0.727970109553066E-06   -0.702963460098088E+01    0.372380967877436E+00
    0.734670596172327E-06   -0.702963460098088E+01    0.372380967877433E+00
    0.741432756369042E-06   -0.702963460098088E+01    0.372380967877430E+00
    0.748257157807974E-06   -0.702963460098088E+01    0.372380967877427E+00
    0.755144373378867E-06   -0.702963460098088E+01    0.372380967877423E+00
    0.762094981244542E-06   -0.702963460098089E+01    0.372380967877420E+00
    0.769109564889427E-06   -0.702963460098089E+01    0.372380967877416E+00
    0.776188713168539E-06   -0.702963460098089E+01    0.372380967877413E+00
    0.783333020356921E-06   -0.702963460098089E+01    0.372380967877409E+00
    0.790543086199528E-06   -0.702963460098089E+01    0.372380967877406E+00
    0.797819515961572E-06   -0.702963460098090E+01    0.372380967877402E+00
    0.805162920479332E-06   -0.702963460098090E+01    0.372380967877398E+00
    0.812573916211436E-06   -0.702963460098090E+01    0.372380967877394E+00
    0.820053125290609E-06   -0.702963460098090E+01    0.372380967877390E+00
    0.827601175575898E-06   -0.702963460098090E+01    0.372380967877386E+00
    0.835218700705378E-06   -0.702963460098091E+01    0.372380967877382E+00
    0.842906340149351E-06   -0.702963460098091E+01    0.372380967877378E+00
    0.850664739264020E-06   -0.702963460098091E+01    0.372380967877374E+00
    0.858494549345667E-06   -0.702963460098091E+01    0.372380967877370E+00
    0.866396427685330E-06   -0.702963460098091E+01    0.372380967877365E+00
    0.874371037623980E-06   -0.702963460098092E+01    0.372380967877361E+00
    0.882419048608203E-06   -0.702963460098092E+01    0.372380967877356E+00
    0.890541136246404E-06   -0.702963460098092E+01    0.372380967877352E+00
    0.898737982365518E-06   -0.702963460098092E+01    0.372380967877347E+00
    0.907010275068250E-06   -0.702963460098093E+01    0.372380967877342E+00
    0.915358708790836E-06   -0.702963460098093E+01    0.372380967877337E+00
    0.923783984361344E-06   -0.702963460098093E+01    0.372380967877332E+00
    0.932286809058503E-06   -0.702963460098093E+01    0.372380967877327E+00
    0.940867896671078E-06   -0.702963460098094E+01    0.372380967877322E+00
    0.949527967557791E-06   -0.702963460098094E+01    0.372380967877317E+00
    0.958267748707791E-06   -0.702963460098094E+01    0.372380967877311E+00
    0.967087973801688E-06   -0.702963460098094E+01    0.372380967877306E+00
    0.975989383273136E-06   -0.702963460098095E+01    0.372380967877300E+00
    0.984972724370998E-06   -0.702963460098095E+01    0.372380967877295E+00
    0.994038751222070E-06   -0.702963460098095E+01    0.372380967877289E+00
    0.100318822489439E-05   -0.702963460098096E+01    0.372380967877283E+00
    0.101242191346113E-05   -0.702963460098096E+01    0.372380967877277E+00
    0.102174059206506E-05   -0.702963460098096E+01    0.372380967877271E+00
    0.103114504298364E-05   -0.702963460098097E+01    0.372380967877264E+00
    0.104063605569469E-05   -0.702963460098097E+01    0.372380967877258E+00
    0.105021442694263E-05   -0.702963460098097E+01    0.372380967877252E+00
    0.105988096080541E-05   -0.702963460098097E+01    0.372380967877245E+00
    0.106963646876197E-05   -0.702963460098098E+01    0.372380967877238E+00
    0.107948176976041E-05   -0.702963460098098E+01    0.372380967877232E+00
    0.108941769028667E-05   -0.702963460098099E+01    0.372380967877225E+00
    0.109944506443399E-05   -0.702963460098099E+01    0.372380967877218E+00
    0.110956473397286E-05   -0.702963460098099E+01    0.372380967877210E+00
    0.111977754842173E-05   -0.702963460098100E+01    0.372380967877203E+00
    0.113008436511831E-05   -0.702963460098100E+01    0.372380967877196E+00
    0.114048604929152E-05   -0.702963460098100E+01    0.372380967877188E+00
    0.115098347413418E-05   -0.702963460098101E+01    0.372380967877180E+00
    0.116157752087624E-05   -0.702963460098101E+01    0.372380967877172E+00
    0.117226907885881E-05   -0.702963460098102E+01    0.372380967877164E+00
    0.118305904560881E-05   -0.702963460098102E+01    0.372380967877156E+00
    0.119394832691428E-05   -0.702963460098102E+01    0.372380967877148E+00
    0.120493783690046E-05   -0.702963460098103E+01    0.372380967877139E+00
    0.121602849810653E-05   -0.702963460098103E+01    0.372380967877131E+00
    0.122722124156299E-05   -0.702963460098104E+01    0.372380967877122E+00
    0.123851700686992E-05   -0.702963460098104E+01    0.372380967877113E+00
    0.124991674227575E-05   -0.702963460098105E+01    0.372380967877104E+00
    0.126142140475695E-05   -0.702963460098105E+01    0.372380967877094E+00
    0.127303196009831E-05   -0.702963460098105E+01    0.372380967877085E+00
    0.128474938297405E-05   -0.702963460098106E+01    0.372380967877075E+00
    0.129657465702961E-05   -0.702963460098107E+01    0.372380967877065E+00
    0.130850877496426E-05   -0.702963460098107E+01    0.372380967877055E+00
    0.132055273861438E-05   -0.702963460098108E+01    0.372380967877045E+00
    0.133270755903764E-05   -0.702963460098108E+01    0.372380967877035E+00
    0.134497425659779E-05   -0.702963460098109E+01    0.372380967877024E+00
    0.135735386105039E-05   -0.702963460098109E+01    0.372380967877013E+00
    0.136984741162922E-05   -0.702963460098110E+01    0.372380967877002E+00
    0.138245595713349E-05   -0.702963460098110E+01    0.372380967876991E+00
    0.139518055601596E-05   -0.702963460098111E+01    0.372380967876980E+00
    0.140802227647173E-05   -0.702963460098112E+01    0.372380967876968E+00
    0.142098219652795E-05   -0.702963460098112E+01    0.372380967876956E+00
    0.143406140413427E-05   -0.702963460098113E+01    0.372380967876944E+00
    0.144726099725425E-05   -0.702963460098113E+01    0.372380967876932E+00
    0.146058208395743E-05   -0.702963460098114E+01    0.372380967876920E+00
    0.147402578251244E-05   -0.702963460098114E+01    0.372380967876907E+00
    0.148759322148083E-05   -0.702963460098115E+01    0.372380967876894E+00
    0.150128553981180E-05   -0.702963460098116E+01    0.372380967876881E+00
    0.151510388693786E-05   -0.702963460098117E+01    0.372380967876867E+00
    0.152904942287127E-05   -0.702963460098117E+01    0.372380967876854E+00
    0.154312331830144E-05   -0.702963460098118E+01    0.372380967876840E+00
    0.155732675469321E-05   -0.702963460098119E+01    0.372380967876826E+00
    0.157166092438604E-05   -0.702963460098119E+01    0.372380967876811E+00
    0.158612703069407E-05   -0.702963460098120E+01    0.372380967876796E+00
    0.160072628800718E-05   -0.702963460098121E+01    0.372380967876781E+00
    0.161545992189289E-05   -0.702963460098122E+01    0.372380967876766E+00
    0.163032916919927E-05   -0.702963460098122E+01    0.372380967876751E+00
    0.164533527815876E-05   -0.702963460098123E+01    0.372380967876735E+00
    0.166047950849299E-05   -0.702963460098124E+01    0.372380967876719E+00
    0.167576313151845E-05   -0.702963460098125E+01    0.372380967876702E+00
    0.169118743025331E-05   -0.702963460098126E+01    0.372380967876685E+00
    0.170675369952504E-05   -0.702963460098127E+01    0.372380967876668E+00
    0.172246324607918E-05   -0.702963460098128E+01    0.372380967876651E+00
    0.173831738868897E-05   -0.702963460098128E+01    0.372380967876633E+00
    0.175431745826613E-05   -0.702963460098129E+01    0.372380967876615E+00
    0.177046479797252E-05   -0.702963460098130E+01    0.372380967876597E+00
    0.178676076333293E-05   -0.702963460098131E+01    0.372380967876578E+00
    0.180320672234886E-05   -0.702963460098132E+01    0.372380967876559E+00
    0.181980405561338E-05   -0.702963460098133E+01    0.372380967876540E+00
    0.183655415642700E-05   -0.702963460098134E+01    0.372380967876520E+00
    0.185345843091465E-05   -0.702963460098135E+01    0.372380967876500E+00
    0.187051829814371E-05   -0.702963460098136E+01    0.372380967876480E+00
    0.188773519024315E-05   -0.702963460098137E+01    0.372380967876459E+00
    0.190511055252375E-05   -0.702963460098138E+01    0.372380967876438E+00
    0.192264584359942E-05   -0.702963460098139E+01    0.372380967876416E+00
    0.194034253550965E-05   -0.702963460098140E+01    0.372380967876394E+00
    0.195820211384309E-05   -0.702963460098142E+01    0.372380967876371E+00
    0.197622607786226E-05   -0.702963460098143E+01    0.372380967876349E+00
    0.199441594062941E-05   -0.702963460098144E+01    0.372380967876325E+00
    0.201277322913351E-05   -0.702963460098145E+01    0.372380967876302E+00
    0.203129948441849E-05   -0.702963460098146E+01    0.372380967876278E+00
    0.204999626171257E-05   -0.702963460098147E+01    0.372380967876253E+00
    0.206886513055881E-05   -0.702963460098149E+01    0.372380967876228E+00
    0.208790767494690E-05   -0.702963460098150E+01    0.372380967876202E+00
    0.210712549344611E-05   -0.702963460098151E+01    0.372380967876176E+00
    0.212652019933947E-05   -0.702963460098153E+01    0.372380967876150E+00
    0.214609342075925E-05   -0.702963460098154E+01    0.372380967876123E+00
    0.216584680082359E-05   -0.702963460098155E+01    0.372380967876095E+00
    0.218578199777446E-05   -0.702963460098157E+01    0.372380967876068E+00
    0.220590068511686E-05   -0.702963460098158E+01    0.372380967876039E+00
    0.222620455175930E-05   -0.702963460098160E+01    0.372380967876010E+00
    0.224669530215558E-05   -0.702963460098161E+01    0.372380967875981E+00
    0.226737465644788E-05   -0.702963460098163E+01    0.372380967875950E+00
    0.228824435061116E-05   -0.702963460098164E+01    0.372380967875920E+00
    0.230930613659889E-05   -0.702963460098166E+01    0.372380967875889E+00
    0.233056178249012E-05   -0.702963460098167E+01    0.372380967875857E+00
    0.235201307263790E-05   -0.702963460098169E+01    0.372380967875824E+00
    0.237366180781910E-05   -0.702963460098171E+01    0.372380967875792E+00
    0.239550980538552E-05   -0.702963460098172E+01    0.372380967875758E+00
    0.241755889941652E-05   -0.702963460098174E+01    0.372380967875724E+00
    0.243981094087295E-05   -0.702963460098176E+01    0.372380967875689E+00
    0.246226779775254E-05   -0.702963460098178E+01    0.372380967875653E+00
    0.248493135524669E-05   -0.702963460098179E+01    0.372380967875617E+00
    0.250780351589878E-05   -0.702963460098181E+01    0.372380967875580E+00
    0.253088619976382E-05   -0.702963460098183E+01    0.372380967875543E+00
    0.255418134456970E-05   -0.702963460098185E+01    0.372380967875505E+00
    0.257769090587980E-05   -0.702963460098187E+01    0.372380967875466E+00
    0.260141685725718E-05   -0.702963460098189E+01    0.372380967875426E+00
    0.262536119043025E-05   -0.702963460098191E+01    0.372380967875386E+00
    0.264952591545997E-05   -0.702963460098193E+01    0.372380967875345E+00
    0.267391306090860E-05   -0.702963460098195E+01    0.372380967875303E+00
    0.269852467400998E-05   -0.702963460098197E+01    0.372380967875260E+00
    0.272336282084138E-05   -0.702963460098199E+01    0.372380967875217E+00
    0.274842958649697E-05   -0.702963460098202E+01    0.372380967875173E+00
    0.277372707526284E-05   -0.702963460098204E+01    0.372380967875128E+00
    0.279925741079364E-05   -0.702963460098206E+01    0.372380967875082E+00
    0.282502273629087E-05   -0.702963460098209E+01    0.372380967875035E+00
    0.285102521468281E-05   -0.702963460098211E+01    0.372380967874988E+00
    0.287726702880604E-05   -0.702963460098214E+01    0.372380967874939E+00
    0.290375038158874E-05   -0.702963460098216E+01    0.372380967874890E+00
    0.293047749623560E-05   -0.702963460098218E+01    0.372380967874840E+00
    0.295745061641443E-05   -0.702963460098221E+01    0.372380967874789E+00
    0.298467200644455E-05   -0.702963460098224E+01    0.372380967874736E+00
    0.301214395148684E-05   -0.702963460098226E+01    0.372380967874683E+00
    0.303986875773557E-05   -0.702963460098229E+01    0.372380967874629E+00
    0.306784875261204E-05   -0.702963460098232E+01    0.372380967874574E+00
    0.309608628495992E-05   -0.702963460098235E+01    0.372380967874518E+00
    0.312458372524245E-05   -0.702963460098238E+01    0.372380967874461E+00
    0.315334346574141E-05   -0.702963460098240E+01    0.372380967874403E+00
    0.318236792075799E-05   -0.702963460098244E+01    0.372380967874344E+00
    0.321165952681541E-05   -0.702963460098247E+01    0.372380967874283E+00
    0.324122074286351E-05   -0.702963460098250E+01    0.372380967874222E+00
    0.327105405048511E-05   -0.702963460098253E+01    0.372380967874159E+00
    0.330116195410441E-05   -0.702963460098256E+01    0.372380967874095E+00
    0.333154698119718E-05   -0.702963460098259E+01    0.372380967874030E+00
    0.336221168250292E-05   -0.702963460098263E+01    0.372380967873964E+00
    0.339315863223904E-05   -0.702963460098266E+01    0.372380967873897E+00
    0.342439042831692E-05   -0.702963460098269E+01    0.372380967873828E+00
    0.345590969255999E-05   -0.702963460098273E+01    0.372380967873758E+00
    0.348771907092388E-05   -0.702963460098277E+01    0.372380967873687E+00
    0.351982123371847E-05   -0.702963460098280E+01    0.372380967873615E+00
    0.355221887583211E-05   -0.702963460098284E+01    0.372380967873541E+00
    0.358491471695780E-05   -0.702963460098288E+01    0.372380967873466E+00
    0.361791150182156E-05   -0.702963460098292E+01    0.372380967873389E+00
    0.365121200041279E-05   -0.702963460098295E+01    0.372380967873311E+00
    0.368481900821682E-05   -0.702963460098299E+01    0.372380967873232E+00
    0.371873534644961E-05   -0.702963460098304E+01    0.372380967873151E+00
    0.375296386229452E-05   -0.702963460098308E+01    0.372380967873068E+00
    0.378750742914140E-05   -0.702963460098312E+01    0.372380967872984E+00
    0.382236894682775E-05   -0.702963460098316E+01    0.372380967872899E+00
    0.385755134188216E-05   -0.702963460098321E+01    0.372380967872812E+00
    0.389305756777001E-05   -0.702963460098325E+01    0.372380967872723E+00
    0.392889060514139E-05   -0.702963460098330E+01    0.372380967872633E+00
    0.396505346208129E-05   -0.702963460098334E+01    0.372380967872541E+00
    0.400154917436218E-05   -0.702963460098339E+01    0.372380967872447E+00
    0.403838080569879E-05   -0.702963460098344E+01    0.372380967872352E+00
    0.407555144800535E-05   -0.702963460098349E+01    0.372380967872254E+00
    0.411306422165514E-05   -0.702963460098354E+01    0.372380967872156E+00
    0.415092227574239E-05   -0.702963460098359E+01    0.372380967872055E+00
    0.418912878834671E-05   -0.702963460098364E+01    0.372380967871952E+00
    0.422768696679982E-05   -0.702963460098369E+01    0.372380967871847E+00
    0.426660004795485E-05   -0.702963460098375E+01    0.372380967871741E+00
    0.430587129845800E-05   -0.702963460098380E+01    0.372380967871632E+00
    0.434550401502282E-05   -0.702963460098386E+01    0.372380967871522E+00
    0.438550152470695E-05   -0.702963460098391E+01    0.372380967871409E+00
    0.442586718519141E-05   -0.702963460098397E+01    0.372380967871295E+00
    0.446660438506244E-05   -0.702963460098403E+01    0.372380967871178E+00
    0.450771654409604E-05   -0.702963460098409E+01    0.372380967871059E+00
    0.454920711354494E-05   -0.702963460098415E+01    0.372380967870938E+00
    0.459107957642844E-05   -0.702963460098421E+01    0.372380967870815E+00
    0.463333744782472E-05   -0.702963460098427E+01    0.372380967870689E+00
    0.467598427516593E-05   -0.702963460098434E+01    0.372380967870561E+00
    0.471902363853603E-05   -0.702963460098441E+01    0.372380967870431E+00
    0.476245915097129E-05   -0.702963460098447E+01    0.372380967870298E+00
    0.480629445876361E-05   -0.702963460098454E+01    0.372380967870163E+00
    0.485053324176659E-05   -0.702963460098461E+01    0.372380967870025E+00
    0.489517921370450E-05   -0.702963460098468E+01    0.372380967869885E+00
    0.494023612248397E-05   -0.702963460098475E+01    0.372380967869742E+00
    0.498570775050867E-05   -0.702963460098483E+01    0.372380967869597E+00
    0.503159791499680E-05   -0.702963460098490E+01    0.372380967869449E+00
    0.507791046830155E-05   -0.702963460098498E+01    0.372380967869298E+00
    0.512464929823449E-05   -0.702963460098505E+01    0.372380967869144E+00
    0.517181832839194E-05   -0.702963460098513E+01    0.372380967868988E+00
    0.521942151848434E-05   -0.702963460098521E+01    0.372380967868828E+00
    0.526746286466868E-05   -0.702963460098529E+01    0.372380967868666E+00
    0.531594639988394E-05   -0.702963460098537E+01    0.372380967868501E+00
    0.536487619418964E-05   -0.702963460098546E+01    0.372380967868332E+00
    0.541425635510756E-05   -0.702963460098555E+01    0.372380967868161E+00
    0.546409102796648E-05   -0.702963460098564E+01    0.372380967867986E+00
    0.551438439625023E-05   -0.702963460098572E+01    0.372380967867808E+00
    0.556514068194887E-05   -0.702963460098582E+01    0.372380967867627E+00
    0.561636414591307E-05   -0.702963460098591E+01    0.372380967867442E+00
    0.566805908821186E-05   -0.702963460098600E+01    0.372380967867254E+00
    0.572022984849358E-05   -0.702963460098610E+01    0.372380967867063E+00
    0.577288080635016E-05   -0.702963460098620E+01    0.372380967866868E+00
    0.582601638168483E-05   -0.702963460098630E+01    0.372380967866669E+00
    0.587964103508309E-05   -0.702963460098640E+01    0.372380967866467E+00
    0.593375926818723E-05   -0.702963460098650E+01    0.372380967866261E+00
    0.598837562407417E-05   -0.702963460098661E+01    0.372380967866051E+00
    0.604349468763690E-05   -0.702963460098672E+01    0.372380967865837E+00
    0.609912108596931E-05   -0.702963460098683E+01    0.372380967865620E+00
    0.615525948875467E-05   -0.702963460098694E+01    0.372380967865398E+00
    0.621191460865761E-05   -0.702963460098705E+01    0.372380967865172E+00
    0.626909120171974E-05   -0.702963460098717E+01    0.372380967864942E+00
    0.632679406775890E-05   -0.702963460098728E+01    0.372380967864708E+00
    0.638502805077212E-05   -0.702963460098741E+01    0.372380967864470E+00
    0.644379803934222E-05   -0.702963460098753E+01    0.372380967864227E+00
    0.650310896704823E-05   -0.702963460098765E+01    0.372380967863979E+00
    0.656296581287952E-05   -0.702963460098778E+01    0.372380967863727E+00
    0.662337360165380E-05   -0.702963460098791E+01    0.372380967863470E+00
    0.668433740443891E-05   -0.702963460098804E+01    0.372380967863209E+00
    0.674586233897856E-05   -0.702963460098817E+01    0.372380967862943E+00
    0.680795357012191E-05   -0.702963460098831E+01    0.372380967862671E+00
    0.687061631025716E-05   -0.702963460098845E+01    0.372380967862395E+00
    0.693385581974915E-05   -0.702963460098859E+01    0.372380967862114E+00
    0.699767740738087E-05   -0.702963460098874E+01    0.372380967861827E+00
    0.706208643079923E-05   -0.702963460098888E+01    0.372380967861536E+00
    0.712708829696471E-05   -0.702963460098903E+01    0.372380967861238E+00
    0.719268846260534E-05   -0.702963460098918E+01    0.372380967860936E+00
    0.725889243467473E-05   -0.702963460098934E+01    0.372380967860627E+00
    0.732570577081440E-05   -0.702963460098950E+01    0.372380967860313E+00
    0.739313407982028E-05   -0.702963460098966E+01    0.372380967859993E+00
    0.746118302211360E-05   -0.702963460098982E+01    0.372380967859668E+00
    0.752985831021606E-05   -0.702963460098999E+01    0.372380967859336E+00
    0.759916570922935E-05   -0.702963460099016E+01    0.372380967858998E+00
    0.766911103731913E-05   -0.702963460099033E+01    0.372380967858654E+00
    0.773970016620347E-05   -0.702963460099051E+01    0.372380967858303E+00
    0.781093902164574E-05   -0.702963460099069E+01    0.372380967857946E+00
    0.788283358395206E-05   -0.702963460099087E+01    0.372380967857583E+00
    0.795538988847337E-05   -0.702963460099106E+01    0.372380967857212E+00
    0.802861402611200E-05   -0.702963460099125E+01    0.372380967856835E+00
    0.810251214383308E-05   -0.702963460099144E+01    0.372380967856451E+00
    0.817709044518049E-05   -0.702963460099164E+01    0.372380967856060E+00
    0.825235519079768E-05   -0.702963460099184E+01    0.372380967855661E+00
    0.832831269895317E-05   -0.702963460099204E+01    0.372380967855256E+00
    0.840496934607104E-05   -0.702963460099225E+01    0.372380967854842E+00
    0.848233156726612E-05   -0.702963460099246E+01    0.372380967854421E+00
    0.856040585688428E-05   -0.702963460099268E+01    0.372380967853992E+00
    0.863919876904755E-05   -0.702963460099290E+01    0.372380967853556E+00
    0.871871691820437E-05   -0.702963460099312E+01    0.372380967853111E+00
    0.879896697968481E-05   -0.702963460099335E+01    0.372380967852658E+00
    0.887995569026099E-05   -0.702963460099358E+01    0.372380967852196E+00
    0.896168984871258E-05   -0.702963460099382E+01    0.372380967851727E+00
    0.904417631639754E-05   -0.702963460099406E+01    0.372380967851248E+00
    0.912742201782816E-05   -0.702963460099431E+01    0.372380967850760E+00
    0.921143394125227E-05   -0.702963460099456E+01    0.372380967850264E+00
    0.929621913923995E-05   -0.702963460099481E+01    0.372380967849758E+00
    0.938178472927557E-05   -0.702963460099507E+01    0.372380967849243E+00
    0.946813789435524E-05   -0.702963460099533E+01    0.372380967848719E+00
    0.955528588358986E-05   -0.702963460099560E+01    0.372380967848185E+00
    0.964323601281360E-05   -0.702963460099588E+01    0.372380967847640E+00
    0.973199566519810E-05   -0.702963460099616E+01    0.372380967847086E+00
    0.982157229187225E-05   -0.702963460099644E+01    0.372380967846522E+00
    0.991197341254767E-05   -0.702963460099673E+01    0.372380967845947E+00
    0.100032066161500E-04   -0.702963460099702E+01    0.372380967845361E+00
    0.100952795614559E-04   -0.702963460099732E+01    0.372380967844765E+00
    0.101881999777361E-04   -0.702963460099763E+01    0.372380967844158E+00
    0.102819756654043E-04   -0.702963460099794E+01    0.372380967843539E+00
    0.103766144966715E-04   -0.702963460099826E+01    0.372380967842909E+00
    0.104721244162078E-04   -0.702963460099858E+01    0.372380967842267E+00
    0.105685134418082E-04   -0.702963460099891E+01    0.372380967841614E+00
    0.106657896650666E-04   -0.702963460099924E+01    0.372380967840948E+00
    0.107639612520545E-04   -0.702963460099959E+01    0.372380967840270E+00
    0.108630364440070E-04   -0.702963460099993E+01    0.372380967839580E+00
    0.109630235580141E-04   -0.702963460100029E+01    0.372380967838877E+00
    0.110639309877192E-04   -0.702963460100065E+01    0.372380967838160E+00
    0.111657672040237E-04   -0.702963460100101E+01    0.372380967837431E+00
    0.112685407557980E-04   -0.702963460100139E+01    0.372380967836688E+00
    0.113722602705995E-04   -0.702963460100177E+01    0.372380967835931E+00
    0.114769344553963E-04   -0.702963460100216E+01    0.372380967835160E+00
    0.115825720972986E-04   -0.702963460100255E+01    0.372380967834375E+00
    0.116891820642961E-04   -0.702963460100296E+01    0.372380967833576E+00
    0.117967733060024E-04   -0.702963460100337E+01    0.372380967832762E+00
    0.119053548544067E-04   -0.702963460100378E+01    0.372380967831932E+00
    0.120149358246316E-04   -0.702963460100421E+01    0.372380967831087E+00
    0.121255254156983E-04   -0.702963460100464E+01    0.372380967830227E+00
    0.122371329112990E-04   -0.702963460100508E+01    0.372380967829351E+00
    0.123497676805763E-04   -0.702963460100553E+01    0.372380967828459E+00
    0.124634391789095E-04   -0.702963460100599E+01    0.372380967827550E+00
    0.125781569487085E-04   -0.702963460100645E+01    0.372380967826624E+00
    0.126939306202148E-04   -0.702963460100693E+01    0.372380967825681E+00
    0.128107699123099E-04   -0.702963460100741E+01    0.372380967824721E+00
    0.129286846333313E-04   -0.702963460100791E+01    0.372380967823743E+00
    0.130476846818958E-04   -0.702963460100841E+01    0.372380967822747E+00
    0.131677800477303E-04   -0.702963460100892E+01    0.372380967821732E+00
    0.132889808125109E-04   -0.702963460100944E+01    0.372380967820699E+00
    0.134112971507085E-04   -0.702963460100997E+01    0.372380967819646E+00
    0.135347393304436E-04   -0.702963460101051E+01    0.372380967818574E+00
    0.136593177143480E-04   -0.702963460101106E+01    0.372380967817483E+00
    0.137850427604346E-04   -0.702963460101162E+01    0.372380967816371E+00
    0.139119250229755E-04   -0.702963460101219E+01    0.372380967815238E+00
    0.140399751533880E-04   -0.702963460101277E+01    0.372380967814085E+00
    0.141692039011285E-04   -0.702963460101336E+01    0.372380967812910E+00
    0.142996221145952E-04   -0.702963460101396E+01    0.372380967811714E+00
    0.144312407420388E-04   -0.702963460101457E+01    0.372380967810495E+00
    0.145640708324813E-04   -0.702963460101520E+01    0.372380967809254E+00
    0.146981235366437E-04   -0.702963460101583E+01    0.372380967807990E+00
    0.148334101078822E-04   -0.702963460101648E+01    0.372380967806702E+00
    0.149699419031326E-04   -0.702963460101714E+01    0.372380967805391E+00
    0.151077303838638E-04   -0.702963460101781E+01    0.372380967804055E+00
    0.152467871170402E-04   -0.702963460101850E+01    0.372380967802695E+00
    0.153871237760923E-04   -0.702963460101920E+01    0.372380967801310E+00
    0.155287521418969E-04   -0.702963460101991E+01    0.372380967799899E+00
    0.156716841037662E-04   -0.702963460102063E+01    0.372380967798462E+00
    0.158159316604455E-04   -0.702963460102137E+01    0.372380967796998E+00
    0.159615069211207E-04   -0.702963460102212E+01    0.372380967795507E+00
    0.161084221064350E-04   -0.702963460102288E+01    0.372380967793989E+00
    0.162566895495143E-04   -0.702963460102366E+01    0.372380967792443E+00
    0.164063216970030E-04   -0.702963460102445E+01    0.372380967790868E+00
    0.165573311101086E-04   -0.702963460102526E+01    0.372380967789264E+00
    0.167097304656565E-04   -0.702963460102608E+01    0.372380967787630E+00
    0.168635325571535E-04   -0.702963460102692E+01    0.372380967785966E+00
    0.170187502958627E-04   -0.702963460102777E+01    0.372380967784271E+00
    0.171753967118865E-04   -0.702963460102864E+01    0.372380967782545E+00